RAW/CMTT/fspd/CMT6T.vrp_seed-4.out
555.4302365	0.097	28.246
