RAW/CMTT/fspd/CMT6T.vrp_seed-4.sol
Route #1: 18 4 47 46
Route #2: 27 48 8 26 7 43 24 23 6
Route #3: 14 25 13 41 40 19 42 17
Route #4: 2 20 35 36 3 28 31 22 1
Route #5: 32 11 16 29 21 50 34 30 9 38
Route #6: 12 37 44 15 45 33 39 10 49 5
Cost 555.430236